(set-logic QF_SLIA)
(declare-fun var0 () String)
(assert (str.in_re var0 (re.++ ((_ re.loop 1 2) (re.++ ((_ re.loop 2 16) (str.to_re "tY")) (re.++ ((_ re.loop 4 18) (str.to_re "E")) (re.++ ((_ re.loop 4 7) (str.to_re "cx")) ((_ re.loop 4 20) (str.to_re "h=")))))) (re.++ ((_ re.loop 0 5) (re.++ ((_ re.loop 2 7) (str.to_re "!K")) (re.++ ((_ re.loop 5 7) (str.to_re "4JY")) (re.++ ((_ re.loop 1 6) (str.to_re "UM")) ((_ re.loop 5 15) (str.to_re "H$9")))))) (re.++ ((_ re.loop 1 6) (re.++ ((_ re.loop 3 16) (str.to_re "[iH")) (re.++ ((_ re.loop 3 6) (str.to_re "0DH")) (re.++ ((_ re.loop 4 7) (str.to_re "[")) ((_ re.loop 2 18) (str.to_re "^r}")))))) ((_ re.loop 1 5) (re.++ ((_ re.loop 0 17) (str.to_re "\\K")) (re.++ ((_ re.loop 5 20) (str.to_re ")c")) (re.++ ((_ re.loop 3 10) (str.to_re "[<")) ((_ re.loop 5 14) (str.to_re "[")))))))))))
(assert (not (str.in_re var0 (re.++ (re.* re.allchar) (re.++ (re.union (str.to_re "<") (re.union (str.to_re ">") (re.union (str.to_re "'") (re.union (str.to_re "\u0022") (str.to_re "&"))))) (re.* re.allchar))))))
(assert (<= 50 (str.len var0)))
(check-sat)
(get-model)
